0000000000000000
0000000000000000
0000111000000000
0000111000000000
0000111000000000
0000111111111100
0000000000001100
0000000000001100
0000000000001100
0000000000111100
0000000011110000
0000001111000000
0000111100000000
0000000000000000
0000000000000000
0000000000000000